76 87 9 19 100 
49 94 73 
15 67 84 45 91 14 13 41 39 26 25 2 40 
50 92 62 44 11 8 83 52 4 5 1 51 31 
69 23 47 22 36 32 82 74 
37 65 72 55 
24 70 
56 33 
80 38 57 96 17 27 21 
99 85 20 28 7 43 29 64 
79 53 95 54 
35 78 18 
98 59 3 68 81 71 66 90 10 93 16 6 61 86 30 89 88 46 97 42 12 34 60 63 48 77 58 75 

